************************************************************************
file with basedata            : J12012_.BAS
initial value random generator: 1852755769
************************************************************************
projects                      :  1
jobs (incl. supersource/sink ):  122
horizon                       :  662
RESOURCES
  - renewable                 :  4   R
  - nonrenewable              :  0   N
  - doubly constrained        :  0   D
************************************************************************
PROJECT INFORMATION:
pronr.  #jobs rel.date duedate tardcost  MPM-Time
    1    120      0       82       94       82
************************************************************************
PRECEDENCE RELATIONS:
jobnr.    #modes  #successors   successors
   1        1          3           2   3   4
   2        1          3          15  20  25
   3        1          3           6   8  12
   4        1          2           5  79
   5        1          3          14  31  49
   6        1          3           7  11  17
   7        1          3           9  16  18
   8        1          3          10  19  30
   9        1          3          27  44 112
  10        1          3          21  36  73
  11        1          3          13  22  26
  12        1          2          89 113
  13        1          3          35  38  53
  14        1          2          50  82
  15        1          1          24
  16        1          2          52  57
  17        1          3          28  78  94
  18        1          3          33  54  70
  19        1          1          41
  20        1          1         101
  21        1          3          39  40  74
  22        1          3          23  87  98
  23        1          1          60
  24        1          1          37
  25        1          2          42  84
  26        1          2          32  51
  27        1          3          29  34  64
  28        1          1          85
  29        1          3          56  65  71
  30        1          1          70
  31        1          1          90
  32        1          1         104
  33        1          1          63
  34        1          1         107
  35        1          1          80
  36        1          2          48  68
  37        1          2          55  67
  38        1          1          43
  39        1          1          69
  40        1          2          45  47
  41        1          1          46
  42        1          1         120
  43        1          1          83
  44        1          1         105
  45        1          1         118
  46        1          2          50  81
  47        1          1         107
  48        1          1          86
  49        1          1         105
  50        1          2          61  77
  51        1          2          58  59
  52        1          1         103
  53        1          2          88  96
  54        1          1         100
  55        1          2          68 116
  56        1          1         107
  57        1          1         105
  58        1          2          69  78
  59        1          2          75  80
  60        1          2          63  95
  61        1          2          62  99
  62        1          2          87 109
  63        1          2          66  72
  64        1          1          76
  65        1          1          82
  66        1          2          82  92
  67        1          1         110
  68        1          2          69 100
  69        1          1         113
  70        1          2          90 102
  71        1          1         100
  72        1          1         113
  73        1          1         106
  74        1          1         106
  75        1          1         108
  76        1          1          79
  77        1          1         114
  78        1          2          83  85
  79        1          1          93
  80        1          1          81
  81        1          1          98
  82        1          1         108
  83        1          3          91 102 115
  84        1          1         111
  85        1          1         116
  86        1          1          97
  87        1          1          93
  88        1          1          90
  89        1          1          96
  90        1          1         109
  91        1          1         119
  92        1          1         117
  93        1          1         102
  94        1          1          96
  95        1          2          99 121
  96        1          1         103
  97        1          1         110
  98        1          1         106
  99        1          1         109
 100        1          1         104
 101        1          1         112
 102        1          2         103 121
 103        1          1         110
 104        1          1         115
 105        1          1         116
 106        1          1         112
 107        1          1         119
 108        1          1         114
 109        1          1         114
 110        1          1         120
 111        1          1         117
 112        1          1         115
 113        1          1         118
 114        1          1         119
 115        1          1         117
 116        1          1         118
 117        1          1         121
 118        1          1         120
 119        1          1         122
 120        1          1         122
 121        1          1         122
 122        1          0        
************************************************************************
REQUESTS/DURATIONS:
jobnr. mode duration  R 1  R 2  R 3  R 4
------------------------------------------------------------------------
  1      1     0       0    0    0    0
  2      1     6       8    4    9    7
  3      1     2       8    2    5    0
  4      1     9       4    0    9    3
  5      1     3       7   10    0    7
  6      1     1       2    0    1    0
  7      1    10       1    0    1    4
  8      1     2       0    9    5    5
  9      1     9       0    2    2    1
 10      1     3       4    1    5    0
 11      1     6       9    0    6    2
 12      1     9       9    1    9   10
 13      1     1       7    4    0    0
 14      1     2       0    3    7    9
 15      1     6       9    0    3    5
 16      1     1       0    3    4    6
 17      1     6       0    0    0    7
 18      1     9       6    0    0   10
 19      1     2       9    9    0    6
 20      1     4       4    0    0    4
 21      1    10      10    9    4    7
 22      1     4       1   10    7    0
 23      1     5       6    0    0    9
 24      1     7       4    4    0    9
 25      1     4       6    6   10    0
 26      1     2       3   10    5    1
 27      1     5       0    8    0    4
 28      1     3       3    7    1    0
 29      1     9      10    7    0    7
 30      1     3       0    3    0    5
 31      1     9       0    5    0    9
 32      1     5       9    3    9    4
 33      1     6       0    0    1    4
 34      1     9       1    0    5    9
 35      1     5       5    9    0    0
 36      1     6       0    6    9    0
 37      1     8       7    3    0   10
 38      1     4       1   10    6    0
 39      1     9      10    5    1    0
 40      1    10       0    7    3    9
 41      1     4       1    8    0    1
 42      1     1       2    3    1    9
 43      1     1      10    8    1    0
 44      1     8       4    7    1    8
 45      1    10       0   10    0    0
 46      1    10       0    0    4    0
 47      1    10       8   10    3    6
 48      1     5       5    9    7    7
 49      1    10       0    0    6    8
 50      1     3       9    1    0    8
 51      1     7      10    7    1    4
 52      1     2       3    6    1    8
 53      1     3       0    4    8    6
 54      1     9       0    2    9   10
 55      1     3       8   10    0    1
 56      1     9       6    1    3    5
 57      1     5       5    2    3    8
 58      1     9       7    9    2    6
 59      1     9       4    0    0    0
 60      1     7       2    6    6    0
 61      1     7       0    6    3    9
 62      1     6      10    0    4    3
 63      1     3       2    1    9    9
 64      1     2       5    8    9    8
 65      1     3       3    2    4    0
 66      1     2       3    2    5    0
 67      1    10       9   10    6   10
 68      1     2       0    3    0    4
 69      1    10       5    2    2    1
 70      1     5       7    0    0    9
 71      1     8       1    0    9    8
 72      1     6       8    0    1    0
 73      1     6       5    9    0    0
 74      1     7       0    9    3    3
 75      1     6       0    7    0    7
 76      1     9       5    4    7    0
 77      1     8       4    6    0    4
 78      1     1       4    4    6    2
 79      1     7       3    0    0    1
 80      1     2       4    0   10   10
 81      1    10       0    7   10    8
 82      1     6       4    5    2    3
 83      1     8       2    0    1   10
 84      1    10       8    1    4    7
 85      1    10       8    1    8   10
 86      1     3       0    5    5    5
 87      1     6       1    1    2    3
 88      1     4       1    7    9    4
 89      1     9       0    3    6    6
 90      1     1       1    9    0    0
 91      1     5      10   10    9    8
 92      1     5       7    0    0    4
 93      1     4       5    8   10    1
 94      1     6       0    3    0    0
 95      1     1       9    0   10    5
 96      1     2      10    5    5    9
 97      1     7       0    5    4    0
 98      1     2       7    1    1    9
 99      1     5       0    1    7    0
100      1    10       7    7    1    0
101      1     4       0    0    1    8
102      1     5       0    5    4   10
103      1     8      10    2    6    7
104      1     8       2    5   10    9
105      1     7       1    4    2    7
106      1     3       0    0    0    1
107      1    10       4    9    9    8
108      1     4       0    1    3    2
109      1     1       5   10    6    6
110      1     2       6    1    7    6
111      1     2       9    0    7    1
112      1     3       4    0    1    0
113      1     1       7    1    0    0
114      1     2       5    5    0    5
115      1     4       0    9    8    1
116      1     9      10    3    7    9
117      1    10       1    9    8    0
118      1     2      10    1    3    7
119      1     1       2    0    1   10
120      1     7       3   10    9    5
121      1     6       1    6    3    0
122      1     0       0    0    0    0
************************************************************************
RESOURCEAVAILABILITIES:
  R 1  R 2  R 3  R 4
   24   28   23   32
************************************************************************
